<number of tasks>
30

<cycle time>
54

<task times>
1 8
2 7
3 19
4 10
5 2
6 6
7 14
8 10
9 1
10 4
11 14
12 15
13 5
14 12
15 9
16 10
17 2
18 10
19 18
20 16
21 21
22 14
23 16
24 7
25 17
26 9
27 25
28 7
29 14
30 2

<precedence relations>
1,4
1,5
2,11
2,12
3,16
3,17
4,7
5,6
6,7
7,8
8,9
9,26
10,24
12,13
13,14
14,15
14,20
15,22
16,20
17,18
18,19
20,21
20,24
21,22
22,23
23,27
24,25
25,26
26,27
27,28
27,29
29,30

<setup times forward>
1,10:1
1,19:1
1,20:1
1,22:1
1,23:1
2,7:1
2,8:1
2,9:1
2,10:1
2,19:1
3,7:1
3,8:1
3,9:1
3,10:1
4,7:1
4,10:1
4,19:1
4,20:1
4,22:1
4,23:1
5,10:1
5,19:1
5,20:1
5,22:1
5,23:1
6,7:1
6,10:1
6,19:1
6,20:1
6,22:1
6,23:1
7,2:1
7,3:1
7,11:1
7,12:1
7,13:1
7,14:1
7,15:1
7,16:1
7,17:1
7,18:1
7,21:1
7,24:1
7,25:1
8,2:1
8,3:1
8,11:1
8,12:1
8,13:1
8,14:1
8,15:1
8,16:1
8,17:1
8,18:1
8,21:1
8,24:1
8,25:1
9,2:1
9,3:1
9,11:1
9,12:1
9,13:1
9,14:1
9,15:1
9,16:1
9,17:1
9,18:1
9,21:1
9,24:1
9,25:1
10,1:1
10,2:1
10,3:1
10,4:1
10,5:1
10,6:1
10,11:1
10,12:1
10,13:1
10,14:1
10,15:1
10,16:1
10,17:1
10,18:1
10,21:1
10,24:1
11,7:1
11,8:1
11,9:1
11,10:1
11,19:1
11,20:1
11,22:1
11,23:1
11,26:1
12,7:1
12,8:1
12,9:1
12,10:1
12,19:1
13,7:1
13,8:1
13,9:1
13,10:1
13,19:1
14,7:1
14,8:1
14,9:1
14,10:1
14,19:1
14,20:1
15,7:1
15,8:1
15,9:1
15,10:1
15,19:1
15,20:1
15,22:1
15,26:1
16,7:1
16,8:1
16,9:1
16,10:1
16,19:1
16,20:1
17,7:1
17,8:1
17,9:1
17,10:1
17,20:1
17,22:1
17,23:1
17,26:1
18,7:1
18,8:1
18,9:1
18,10:1
18,19:1
18,20:1
18,22:1
18,23:1
18,26:1
19,1:1
19,2:1
19,4:1
19,5:1
19,6:1
19,11:1
19,12:1
19,13:1
19,14:1
19,15:1
19,16:1
19,21:1
19,24:1
19,25:1
19,27:1
19,28:1
19,29:1
19,30:1
20,1:1
20,4:1
20,5:1
20,6:1
20,11:1
20,15:1
20,17:1
20,18:1
20,21:1
20,24:1
21,7:1
21,8:1
21,9:1
21,10:1
21,19:1
21,22:1
21,26:1
22,1:1
22,4:1
22,5:1
22,6:1
22,11:1
22,17:1
22,18:1
22,24:1
22,25:1
23,1:1
23,4:1
23,5:1
23,6:1
23,11:1
23,17:1
23,18:1
23,24:1
23,25:1
23,27:1
24,7:1
24,8:1
24,9:1
24,19:1
24,22:1
24,23:1
25,7:1
25,8:1
25,9:1
25,19:1
25,22:1
25,23:1
25,26:1
26,11:1
26,15:1
26,17:1
26,18:1
26,21:1
26,27:1
27,19:1
28,19:1
29,19:1
30,19:1

<setup times backward>
1,10:1
1,19:1
1,20:1
1,22:1
1,23:1
2,7:1
2,8:1
2,9:1
2,10:1
2,19:1
3,7:1
3,8:1
3,9:1
3,10:1
4,10:1
4,19:1
4,20:1
4,22:1
4,23:1
5,10:1
5,19:1
5,20:1
5,22:1
5,23:1
6,10:1
6,19:1
6,20:1
6,22:1
6,23:1
11,7:1
11,8:1
11,9:1
11,10:1
11,19:1
11,20:1
11,22:1
11,23:1
11,26:1
12,7:1
12,8:1
12,9:1
12,10:1
12,19:1
13,7:1
13,8:1
13,9:1
13,10:1
13,19:1
14,7:1
14,8:1
14,9:1
14,10:1
14,19:1
15,7:1
15,8:1
15,9:1
15,10:1
15,19:1
15,20:1
15,26:1
16,7:1
16,8:1
16,9:1
16,10:1
16,19:1
17,7:1
17,8:1
17,9:1
17,10:1
17,20:1
17,22:1
17,23:1
17,26:1
18,7:1
18,8:1
18,9:1
18,10:1
18,20:1
18,22:1
18,23:1
18,26:1
21,7:1
21,8:1
21,9:1
21,10:1
21,19:1
21,20:1
21,26:1
24,7:1
24,8:1
24,9:1
24,10:1
24,19:1
24,20:1
24,22:1
24,23:1
25,7:1
25,8:1
25,9:1
25,10:1
25,19:1
25,20:1
25,22:1
25,23:1
27,7:1
27,8:1
27,9:1
27,10:1
27,19:1
27,20:1
27,22:1
27,23:1
27,26:1
28,7:1
28,8:1
28,9:1
28,10:1
28,19:1
28,20:1
28,22:1
28,23:1
28,26:1
29,7:1
29,8:1
29,9:1
29,10:1
29,19:1
29,20:1
29,22:1
29,23:1
29,26:1
30,7:1
30,8:1
30,9:1
30,10:1
30,19:1
30,20:1
30,22:1
30,23:1
30,26:1

<end>

<optimal SALBP-1 value>
7


<rand seed>
467321153

